11351.0
1 1 1 1 1 1 1 1 1 0 1 0 1 1 1 1 1 1 1 1 
20 21 39 40 52 71 72 73 
9 26 30 31 62 89 
18 51 
11 27 67 79 
93 
6 10 35 45 46 47 48 61 63 81 
1 12 14 56 57 86 
29 68 69 
87 

3 22 38 55 66 74 

4 16 59 83 88 
5 13 15 36 37 41 42 43 58 60 84 85 90 91 92 95 
23 24 25 53 54 
0 8 19 34 50 64 65 70 
7 17 44 82 
32 49 
94 96 97 98 99 
2 28 33 75 76 77 78 80 
